nbNodes = 12;
nbVehi = 10;
nbServi = 5;

e = 
 [|    0,  163,  146,  443,  128,  330,  250,  442,  310,  314,  430,    0,
 |    0,  287,   67,  183,  151,  267,  376,  149,  112,  306,  212,    0,
 |    0,  368,  132,   84,  213,  261,  126,  321,   91,   99,   15,    0,
 |    0,  298,  332,  448,  108,  249,  458,  318,  480,  101,  350,    0,
 |    0,  419,  445,  218,  313,  313,  219,  269,  127,   78,   44,    0,
 |];

l = 
 [| 480, 220, 179, 503, 163, 364, 284, 482, 349, 350, 460, 480,
 | 480, 329, 112, 243, 187, 310, 411, 186, 150, 364, 258, 480,
 | 480, 414, 186, 138, 245, 310, 158, 368, 126, 133,  66, 480,
 | 480, 345, 385, 506, 168, 293, 512, 350, 529, 148, 402, 480,
 | 480, 472, 476, 259, 367, 358, 249, 304, 183, 132,  98, 480,
 |];

a = 
 [|  1,  0,  0,  0,  0,
 |  0,  1,  0,  0,  0,
 |  0,  0,  1,  0,  0,
 |  0,  0,  0,  1,  0,
 |  0,  0,  0,  0,  1,
 |  1,  0,  0,  0,  0,
 |  0,  1,  0,  0,  0,
 |  0,  0,  1,  0,  0,
 |  0,  0,  0,  1,  0,
 |  0,  0,  0,  0,  1,
 |];

p = array3d(1..nbNodes,1..nbVehi,1..nbServi,
[  0,  0,  0,  0,  0,	  0,  0,  0,  0,  0,	  0,  0,  0,  0,  0,	  0,  0,  0,  0,  0,	  0,  0,  0,  0,  0,	  0,  0,  0,  0,  0,	  0,  0,  0,  0,  0,	  0,  0,  0,  0,  0,	  0,  0,  0,  0,  0,	  0,  0,  0,  0,  0,	
 28,  8, 19, 13,  9,	 27, 29, 14,  9, 18,	 20, 18, 22, 27, 18,	 21, 17, 19, 22, 14,	  9, 13, 27, 17, 16,	 21, 27, 26, 13, 14,	 21, 14, 17, 13, 22,	 24, 10, 23,  8, 14,	 14, 23, 27,  6, 20,	 17, 24,  9,  7, 19,	
 21, 13, 27, 18, 27,	 15, 11, 24, 11, 20,	 10,  5, 29, 22, 13,	 23, 16, 18, 19, 22,	  5, 28, 15, 29,  6,	  8, 17, 27, 14, 21,	 16,  5,  6, 13, 21,	 28, 23, 27, 24,  5,	 19, 29,  7, 20, 23,	 15, 14, 12,  5,  5,	
 29,  7,  5, 14,  7,	  8, 19, 21,  5, 29,	 14, 17, 29, 15, 25,	 20, 13, 21, 18,  9,	 23,  7,  8, 25, 23,	 28, 12,  9, 10, 12,	 11,  9, 15, 13, 21,	 19, 16, 10, 10, 16,	  9, 19, 28,  9,  6,	 24, 26, 16, 17, 14,	
 20, 10, 19, 25,  5,	 14, 23, 12, 20, 29,	 21, 26, 10,  8,  9,	 26, 22, 20,  9, 27,	  6, 13, 18,  7, 19,	 19, 28, 16,  5, 15,	 27, 22, 20, 16, 17,	 22, 27, 11,  6, 17,	 12, 22, 15, 17, 26,	 19, 16, 18, 11, 20,	
 18, 15,  5,  8, 17,	 20, 23, 15,  8, 25,	 25,  5, 18, 17, 19,	  7,  9, 16, 13, 10,	 29, 22, 27, 16, 12,	 25,  6, 23, 16, 14,	 15, 29, 26, 15,  7,	 13,  5, 27, 25, 10,	 25, 22, 11, 15,  9,	 25, 17, 13, 13, 28,	
 20, 14, 20, 20, 26,	 27, 15, 29, 22, 26,	 13,  7, 27, 10, 18,	  7, 20, 20,  6, 16,	 26, 26, 10,  9, 11,	 15,  6, 26, 23, 14,	 24, 16, 26, 16,  6,	 22, 16, 16, 23, 10,	 15,  8, 13, 14, 15,	 28, 18,  6, 20, 20,	
 19, 18, 18, 24, 24,	 27, 11, 25, 23,  5,	 12, 19, 16,  8,  5,	 19, 27, 18,  5, 20,	 24, 17, 23,  9, 29,	  9,  7, 17, 12, 24,	  9, 28, 13, 23, 22,	  9, 20, 29,  5, 15,	  6, 12, 29, 19, 17,	  6,  8, 14, 20, 10,	
 29, 14, 25, 24, 18,	 24, 28, 22, 13, 12,	 18, 18, 10, 28, 11,	  5,  8, 28,  6,  8,	 13,  7, 17, 12, 23,	 29, 13, 28, 13,  5,	 10, 14, 16,  5,  8,	  6, 26,  9, 23, 10,	 16, 14, 23, 24, 12,	 29, 24, 15, 29, 25,	
 20, 12, 29,  7, 19,	 22,  6, 29, 22, 16,	  5, 27, 27, 18, 28,	  8, 20, 24, 12, 15,	  6, 25, 24, 24, 19,	  7, 25, 13, 17, 24,	  8,  8,  6,  7, 12,	 22, 26, 16, 24, 18,	 29, 26, 16, 27, 14,	 16,  5, 29, 12, 14,	
 15, 14,  9,  9, 10,	 26, 13,  6,  9, 28,	 27, 15,  8,  6, 19,	 15, 23, 18, 28, 19,	  6, 28, 15, 19, 25,	 25,  7, 27, 26, 15,	 13, 11, 26, 17, 18,	  6, 15, 28,  9, 22,	 26,  7,  7, 29,  8,	 23, 17, 28, 11, 15,	
  0,  0,  0,  0,  0,	  0,  0,  0,  0,  0,	  0,  0,  0,  0,  0,	  0,  0,  0,  0,  0,	  0,  0,  0,  0,  0,	  0,  0,  0,  0,  0,	  0,  0,  0,  0,  0,	  0,  0,  0,  0,  0,	  0,  0,  0,  0,  0,	  0,  0,  0,  0,  0,	
]);

rs = 
[|true,true,true,true,true,
 |true,false,false,false,false,
 |false,false,false,true,false,
 |false,false,false,true,false,
 |false,true,false,false,false,
 |true,false,false,false,false,
 |true,false,false,false,false,
 |false,false,false,false,true,
 |false,false,true,false,false,
 |false,false,true,false,false,
 |false,true,false,false,false,
 |true,true,true,true,true,
 |];

d=[|0, 25, 4, 26, 20, 13, 20, 25, 19, 25, 2, 0, 
|25, 0, 22, 23, 42, 33, 23, 5, 43, 45, 26, 25, 
|4, 22, 0, 21, 20, 12, 22, 21, 23, 24, 6, 4, 
|26, 23, 21, 0, 31, 25, 39, 18, 43, 32, 28, 26, 
|20, 42, 20, 31, 0, 8, 40, 40, 22, 5, 20, 20, 
|13, 33, 12, 25, 8, 0, 33, 32, 21, 12, 13, 13, 
|20, 23, 22, 39, 40, 33, 0, 27, 29, 45, 20, 20, 
|25, 5, 21, 18, 40, 32, 27, 0, 43, 43, 26, 25, 
|19, 43, 23, 43, 22, 21, 29, 43, 0, 26, 17, 19, 
|25, 45, 24, 32, 5, 12, 45, 43, 26, 0, 25, 25, 
|2, 26, 6, 28, 20, 13, 20, 26, 17, 25, 0, 2, 
|0, 25, 4, 26, 20, 13, 20, 25, 19, 25, 2, 0, 
|];

%coord=[ (0,0), (-22,12), (-4,-2), (-24,-11), (6,-20), (1,-13), (0,20), (-24,7), (19,-2), (5,-25), (2,0), (0,0), ];

